29
115  176
 63  166
  4  209
 75  110
 75  203
103  207
165   65
149  163
 79  226
 71  131
 84   55
117  230
 97  134
 51   70
 75   90
128  120
 23   59
 46   86
104   95
 59  139
 83  177
 49   50
184  124
126  150
128   79
 49  213
146  142
126  191
 36  198
